id14/meal_planning.lp
\Generated by Cardinal Operations

Maximize
   23 x_protein(0) + 20 x_protein(1) + 8 x_protein(2) + 2.8 y_vegetable(0) 
   + 0.9 y_vegetable(1) + 2.9 y_vegetable(2) + y_vegetable(3) 
   + 3.1 y_vegetable(4) 
Subject To
 budget_constraint: 3 x_protein(0) + 5 x_protein(1) + 1.5 x_protein(2) 
   + 1.2 y_vegetable(0) + 0.8 y_vegetable(1) + 1.5 y_vegetable(2) 
   + y_vegetable(3) + 2 y_vegetable(4) <= 20
 weight_constraint: 100 x_protein(0) + 100 x_protein(1) + 100 x_protein(2) 
   + 100 y_vegetable(0) + 100 y_vegetable(1) + 100 y_vegetable(2) 
   + 100 y_vegetable(3) + 100 y_vegetable(4) <= 800
 min_vegetable_types: z_choice(0) + z_choice(1) + z_choice(2) + z_choice(3) 
   + z_choice(4) >= 3
 logic_upper_0: - 8 z_choice(0) + y_vegetable(0) <= 0
 logic_lower_0: y_vegetable(0) - z_choice(0) >= 0
 logic_upper_1: - 8 z_choice(1) + y_vegetable(1) <= 0
 logic_lower_1: y_vegetable(1) - z_choice(1) >= 0
 logic_upper_2: - 8 z_choice(2) + y_vegetable(2) <= 0
 logic_lower_2: y_vegetable(2) - z_choice(2) >= 0
 logic_upper_3: - 8 z_choice(3) + y_vegetable(3) <= 0
 logic_lower_3: y_vegetable(3) - z_choice(3) >= 0
 logic_upper_4: - 8 z_choice(4) + y_vegetable(4) <= 0
 logic_lower_4: y_vegetable(4) - z_choice(4) >= 0
Generals
 y_vegetable(0)  y_vegetable(1)  y_vegetable(2)  y_vegetable(3)  
 y_vegetable(4)  
Binaries
 z_choice(0)  z_choice(1)  z_choice(2)  z_choice(3)  z_choice(4)  
END

