id14/meal_planning.sol
# Objective value 123.8
x_protein(0)    5
x_protein(1)    0
x_protein(2)    0
y_vegetable(0)  1
y_vegetable(1)  0
y_vegetable(2)  1
y_vegetable(3)  0
y_vegetable(4)  1
z_choice(0)     1
z_choice(1)     0
z_choice(2)     1
z_choice(3)     0
z_choice(4)     1
